c ren 1 -> 1
c ren 2 -> 2
c ren 3 -> 3
c ren 4 -> 4
c ren 5 -> 5
c ren 6 -> 6
c ren 7 -> 7
c ren 8 -> 8
c ren 9 -> 9
c ren 10 -> 10
c ren 11 -> 11
c ren 12 -> 12
c ren 13 -> 13
c ren 14 -> 14
c ren 15 -> 15
c ren 16 -> 16
c ren 17 -> 17
c ren 18 -> 18
c ren 19 -> 19
c ren 20 -> 20
c ren 21 -> 21
c ren 22 -> 22
c ren 23 -> 23
c ren 24 -> 24
c ren 25 -> 25
c ren 26 -> 26
c ren 27 -> 27
c ren 28 -> 28
c ren 29 -> 29
c ren 30 -> 30
c ren 31 -> 31
c ren 32 -> 32
c ren 33 -> 33
c ren 34 -> 34
c ren 35 -> 35
c ren 36 -> 36
c ren 37 -> 37
c ren 38 -> 38
c ren 39 -> 39
c ren 40 -> 40
c ren 41 -> 41
c ren 44 -> 42
c ren 60 -> 43
c ren 69 -> 44
c ren 78 -> 45
c ren 81 -> 46
c ren 97 -> 47
c ren 106 -> 48
c ren 115 -> 49
c ren 124 -> 50
c ren 125 -> 51
c ren 134 -> 52
c ren 137 -> 53
c ren 140 -> 54
c ren 152 -> 55
c ren 156 -> 56
c ren 172 -> 57
c ren 181 -> 58
c ren 191 -> 59
c ren 196 -> 60
c ren 212 -> 61
c ren 221 -> 62
c ren 230 -> 63
c ren 234 -> 64
c ren 250 -> 65
c ren 254 -> 66
c ren 270 -> 67
c ren 286 -> 68
c ren 305 -> 69
c ren 324 -> 70
c ren 343 -> 71
c ren 380 -> 72
c ren 399 -> 73
c ren 418 -> 74
c ren 437 -> 75
c ren 454 -> 76
c ren 455 -> 77
c ren 456 -> 78
c ren 457 -> 79
c ren 458 -> 80
c ren 459 -> 81
c ren 460 -> 82
c ren 461 -> 83
c ren 462 -> 84
c ren 463 -> 85
c ren 464 -> 86
c ren 465 -> 87
c ren 466 -> 88
c ren 467 -> 89
c ren 468 -> 90
c ren 469 -> 91
c ren 470 -> 92
c ren 471 -> 93
c ren 472 -> 94
c ren 473 -> 95
c ren 474 -> 96
c ren 475 -> 97
c ren 476 -> 98
c ren 477 -> 99
c ren 478 -> 100
c ren 479 -> 101
c ren 480 -> 102
c ren 481 -> 103
c ren 482 -> 104
c ren 483 -> 105
c ren 484 -> 106
c ren 485 -> 107
c ren 486 -> 108
c ren 487 -> 109
c ren 488 -> 110
c ren 489 -> 111
c ren 562 -> 112
c ren 601 -> 113
c ren 621 -> 114
c ren 640 -> 115
c ren 659 -> 116
c ren 678 -> 117
c ren 896 -> 118
c ren 897 -> 119
c ren 898 -> 120
c ren 899 -> 121
c ren 900 -> 122
c ren 901 -> 123
c ren 902 -> 124
c ren 903 -> 125
c ren 904 -> 126
c ren 905 -> 127
c ren 906 -> 128
c ren 907 -> 129
c ren 908 -> 130
c ren 909 -> 131
c ren 910 -> 132
c ren 914 -> 133
c ren 918 -> 134
c ren 922 -> 135
p cnf 135 1380
a 1 2 3 4 5 6 7 8 9 10 11 12 13 14 15 16 17 18 19 20 21 22 23 24 25 26 27 28 29 30 31 32 33 34 35 36 37 38 39 40 41 83 84 85 86 87 88 89 90 91 92 93 94 95 96 97 98 99 100 101 102 103 104 105 106 107 108 109 110 111 0
d 76 83 84 85 86 87 88 89 90 91 92 93 94 95 96 97 98 99 100 101 102 103 104 105 106 107 108 109 110 111 0
d 77 83 84 85 86 87 88 89 90 91 92 93 94 95 96 97 98 99 100 101 102 103 104 105 106 107 108 109 110 111 0
d 78 83 84 85 86 87 0
d 79 94 95 0
d 80 92 93 0
d 81 88 89 90 91 0
d 82 96 97 98 99 100 101 102 103 104 105 106 107 108 109 110 111 0
e 42 43 44 45 46 47 48 49 50 51 52 53 54 55 56 57 58 59 60 61 62 63 64 65 66 67 68 69 70 71 72 73 74 75 112 113 114 115 116 117 118 119 120 121 122 123 124 125 126 127 128 129 130 131 132 133 134 135 0
1 5 -42 0
1 -5 42 0
-1 5 42 0
-1 -5 -42 0
-9 -13 -33 -41 -42 -43 44 45 0
9 -13 -33 -41 42 -43 44 45 0
-9 -13 -33 -41 -42 43 -44 45 0
9 -13 33 -42 -43 44 45 0
9 -13 -33 -41 42 43 44 -45 0
-9 13 33 42 -43 44 -45 0
9 -13 33 -42 -43 -44 -45 0
-9 -13 33 -42 43 -44 -45 0
-9 -13 41 42 43 -44 45 0
9 -13 33 42 43 -44 -45 0
9 -13 33 -42 43 44 -45 0
-9 -13 41 -42 -43 44 -45 0
-17 -18 19 -20 43 0
17 -18 -19 20 -43 0
-17 -18 19 20 -43 0
-17 18 -19 20 -43 0
17 -18 -19 -20 43 0
17 18 -19 20 43 0
17 18 19 20 -43 0
17 18 -19 -20 -43 0
17 -18 19 -20 -43 0
17 18 19 -20 43 0
-17 18 19 -20 -43 0
-17 -18 -19 -20 -43 0
-17 -18 -19 20 43 0
17 -18 19 20 43 0
-9 -13 41 -42 43 -44 -45 0
-9 -13 33 42 43 44 -45 0
-17 18 -19 -20 43 0
9 -13 33 42 -43 44 -45 0
-21 -22 23 -24 44 0
21 -22 -23 24 -44 0
-21 -22 23 24 -44 0
-21 22 -23 24 -44 0
21 -22 -23 -24 44 0
21 22 -23 24 44 0
21 22 23 24 -44 0
21 22 -23 -24 -44 0
21 -22 23 -24 -44 0
21 22 23 -24 44 0
-21 22 23 -24 -44 0
-21 -22 -23 -24 -44 0
-21 -22 -23 24 44 0
21 -22 23 24 44 0
9 13 41 -42 43 44 45 0
-9 -13 -33 -41 42 43 44 45 0
-21 22 -23 -24 44 0
-9 -13 41 42 43 44 -45 0
9 -13 41 42 43 -44 -45 0
9 -13 -33 -41 -42 -43 44 -45 0
9 -13 -33 -41 -42 43 -44 -45 0
-9 13 -85 -121 0
9 -13 41 42 -43 44 -45 0
-43 -44 87 -123 0
43 -44 -87 -123 0
43 44 87 -123 0
-43 44 -87 -123 0
9 -13 41 -42 -43 44 45 0
9 -13 -85 -121 0
9 -13 41 -42 -43 -44 -45 0
-9 -13 33 42 43 -44 45 0
-9 13 33 42 -43 -44 45 0
-9 13 33 42 43 -44 -45 0
9 -13 33 42 43 44 45 0
-9 13 41 42 -43 44 -45 0
33 86 -122 0
-9 13 -33 -41 42 -43 -44 -45 0
-9 13 33 42 43 44 45 0
17 21 -46 0
17 -21 46 0
-9 13 41 42 -43 -44 45 0
-17 21 46 0
-17 -21 -46 0
-9 13 41 42 43 -44 -45 0
-25 -29 -37 -41 -46 -47 48 49 0
25 -29 -37 -41 46 -47 48 49 0
-25 -29 -37 -41 -46 -47 -48 -49 0
-25 29 -37 -41 46 -47 48 49 0
25 -29 -37 -41 46 -47 -48 -49 0
-25 -29 -37 -41 -46 47 48 -49 0
25 -29 37 -46 -47 48 49 0
25 -29 -37 -41 46 47 48 -49 0
25 -29 37 -46 -47 -48 -49 0
-25 -29 37 -46 47 -48 -49 0
25 -29 37 46 47 -48 -49 0
25 -29 37 -46 47 48 -49 0
25 -29 41 46 -47 -48 49 0
25 -29 37 46 -47 -48 49 0
-1 -2 3 -4 47 0
1 -2 -3 4 -47 0
-1 -2 3 4 -47 0
-1 2 -3 4 -47 0
1 -2 -3 -4 47 0
1 2 -3 4 47 0
1 2 3 4 -47 0
1 2 -3 -4 -47 0
1 -2 3 -4 -47 0
1 2 3 -4 47 0
-1 2 3 -4 -47 0
-1 -2 -3 -4 -47 0
-1 -2 -3 4 47 0
1 -2 3 4 47 0
-25 -29 -37 -41 46 -47 48 -49 0
-25 -29 37 -46 -47 -48 49 0
-1 2 -3 -4 47 0
-25 -29 41 -46 -47 -48 49 0
-5 -6 7 -8 48 0
5 -6 -7 8 -48 0
-5 -6 7 8 -48 0
-5 6 -7 8 -48 0
5 -6 -7 -8 48 0
5 6 -7 8 48 0
5 6 7 8 -48 0
5 6 -7 -8 -48 0
5 -6 7 -8 -48 0
5 6 7 -8 48 0
-5 6 7 -8 -48 0
-5 -6 -7 -8 -48 0
-5 -6 -7 8 48 0
5 -6 7 8 48 0
25 29 -37 -41 -46 47 -48 49 0
-25 -29 37 -46 -47 48 -49 0
-5 6 -7 -8 48 0
25 29 -37 -41 -46 -47 48 49 0
25 -29 41 46 47 -48 -49 0
25 -29 -37 -41 -46 -47 48 -49 0
-25 -29 37 46 47 -48 49 0
-25 29 -37 -41 46 47 -48 49 0
25 -29 41 -46 47 -48 49 0
25 -29 41 -46 47 48 -49 0
25 -29 41 -46 -47 48 49 0
25 -29 41 46 -47 48 -49 0
-25 29 -37 -41 46 -47 -48 -49 0
-25 -29 37 46 -47 -48 -49 0
25 -29 41 46 47 48 49 0
25 -29 -37 -41 -46 47 -48 -49 0
25 -29 41 -46 -47 -48 -49 0
-25 -29 41 -46 47 48 49 0
-25 29 -37 -41 -46 47 -48 -49 0
-25 29 37 46 47 48 49 0
25 -29 -37 -41 -46 -47 -48 49 0
-25 29 -37 -41 -46 -47 48 -49 0
-18 -22 26 -30 50 0
18 -22 -26 30 -50 0
-18 -22 26 30 -50 0
-18 22 -26 30 -50 0
18 -22 -26 -30 50 0
18 22 -26 30 50 0
18 22 26 30 -50 0
18 22 -26 -30 -50 0
18 -22 26 -30 -50 0
18 22 26 -30 50 0
-18 22 26 -30 -50 0
-18 -22 -26 -30 -50 0
-18 -22 -26 30 50 0
18 -22 26 30 50 0
-25 -29 -37 -41 -46 47 -48 49 0
-25 29 37 -46 -47 -48 -49 0
-18 22 -26 -30 50 0
-25 29 41 -46 47 48 -49 0
38 -51 0
41 -51 0
-9 -10 11 -12 52 0
9 -10 -11 12 -52 0
-9 -10 11 12 -52 0
-9 10 -11 12 -52 0
9 -10 -11 -12 52 0
9 10 -11 12 52 0
9 10 11 12 -52 0
9 10 -11 -12 -52 0
9 -10 11 -12 -52 0
9 10 11 -12 52 0
-9 10 11 -12 -52 0
-9 -10 -11 -12 -52 0
-9 -10 -11 12 52 0
9 -10 11 12 52 0
25 29 -37 -41 46 47 48 49 0
25 29 41 -46 -47 48 -49 0
-9 10 -11 -12 52 0
25 29 -37 -41 46 -47 -48 49 0
13 14 41 48 54 -58 113 0
13 -14 53 0
25 29 41 46 -47 48 49 0
-13 14 53 0
25 29 41 46 47 48 -49 0
-14 50 51 -52 54 -112 0
25 29 37 46 47 48 -49 0
25 29 41 46 -47 -48 -49 0
15 16 -54 0
15 -16 54 0
-9 13 -33 -41 -42 43 44 45 0
-15 16 54 0
-15 -16 -54 0
-9 13 -33 -41 -42 -43 -44 45 0
41 48 -53 -54 58 -59 0
41 -48 53 -54 -58 59 0
-9 13 41 -42 -43 -44 -45 0
-40 -41 -48 -53 -54 58 -59 0
41 -48 -53 54 -58 59 0
-40 -41 48 53 54 -58 -59 0
-40 -41 48 53 -54 -58 59 0
-40 -41 48 -53 -54 -58 -59 0
-40 -41 48 -53 54 58 -59 0
50 -51 -52 -53 -54 -55 0
50 -51 52 53 -54 -55 0
40 48 -53 54 58 59 0
-40 -41 48 -53 54 -58 59 0
-50 51 52 -53 -54 55 0
-40 -41 -48 -53 54 -58 -59 0
50 -51 -52 53 -54 55 0
41 48 53 54 58 -59 0
-40 -41 48 -53 -54 58 59 0
50 -51 -52 53 54 -55 0
-50 51 -52 53 -54 55 0
40 48 -53 54 -58 -59 0
-50 -51 -52 53 -54 -55 0
-40 -41 -48 53 54 58 -59 0
40 -48 -53 54 -58 59 0
50 51 52 -53 -54 -55 0
41 -48 -53 54 58 -59 0
40 -48 -53 54 58 -59 0
50 51 -52 53 -54 -55 0
-40 -41 -48 53 54 -58 59 0
50 51 52 -53 54 55 0
41 48 -53 54 -58 -59 0
-40 -41 -48 -53 54 58 59 0
-50 -51 52 -53 54 55 0
41 -48 53 -54 58 -59 0
41 48 -53 54 58 59 0
-50 51 52 -53 54 -55 0
19 23 -56 0
19 -23 56 0
-50 -51 -52 -53 54 -55 0
-19 23 56 0
-19 -23 -56 0
50 -51 52 -53 54 -55 0
-27 -31 -39 -41 -47 52 -56 57 0
27 -31 -39 -41 -47 52 56 57 0
-27 -31 -39 -41 -47 -52 -56 -57 0
-27 31 -39 -41 -47 52 56 57 0
27 -31 -39 -41 -47 -52 56 -57 0
-27 -31 -39 -41 47 52 -56 -57 0
27 -31 39 -47 52 -56 57 0
27 -31 -39 -41 47 52 56 -57 0
27 -31 39 -47 -52 -56 -57 0
-27 -31 39 47 -52 -56 -57 0
27 -31 39 47 -52 56 -57 0
27 -31 39 47 52 -56 -57 0
27 -31 41 -47 -52 56 57 0
27 -31 39 -47 -52 56 57 0
27 -31 41 47 -52 56 -57 0
27 -31 -39 -41 -47 52 -56 -57 0
-27 -31 39 47 -52 56 57 0
-27 31 -39 -41 47 -52 56 57 0
27 -31 41 47 -52 -56 57 0
27 -31 41 47 52 -56 -57 0
27 -31 41 -47 52 -56 57 0
27 -31 41 -47 52 56 -57 0
-27 31 -39 -41 -47 -52 56 -57 0
-27 -31 39 -47 -52 56 -57 0
27 -31 41 47 52 56 57 0
27 -31 -39 -41 47 -52 -56 -57 0
27 -31 41 -47 -52 -56 -57 0
-27 -31 41 47 52 -56 57 0
-27 -31 -39 -41 -47 52 56 -57 0
-27 -31 39 -47 -52 -56 57 0
27 -31 -39 -41 -47 -52 -56 57 0
-27 -31 41 -47 -52 -56 57 0
-20 -24 28 -32 58 0
20 -24 -28 32 -58 0
-20 -24 28 32 -58 0
-20 24 -28 32 -58 0
20 -24 -28 -32 58 0
20 24 -28 32 58 0
20 24 28 32 -58 0
20 24 -28 -32 -58 0
20 -24 28 -32 -58 0
20 24 28 -32 58 0
-20 24 28 -32 -58 0
-20 -24 -28 -32 -58 0
-20 -24 -28 32 58 0
20 -24 28 32 58 0
27 31 -39 -41 47 -52 -56 57 0
-27 -31 39 -47 52 -56 -57 0
-20 24 -28 -32 58 0
27 31 -39 -41 -47 52 -56 57 0
-14 40 -48 54 -58 113 0
-14 -40 -41 48 -54 58 113 0
40 48 -53 -54 58 -59 0
41 48 53 -54 -58 -59 0
13 14 41 48 54 58 -113 0
-50 51 -52 -53 -54 -55 0
40 -48 53 -54 58 -59 0
13 14 41 48 -54 58 113 0
40 48 53 -54 58 59 0
41 -48 -53 -54 58 59 0
-40 -41 -48 53 -54 58 59 0
40 48 -53 -54 -58 59 0
40 48 53 -54 -58 -59 0
13 14 41 -48 54 58 113 0
50 51 52 53 -54 55 0
-14 41 48 -54 -58 113 0
13 14 41 -48 54 -58 -113 0
41 48 53 -54 58 59 0
50 51 -52 -53 -54 55 0
13 14 -53 0
40 -48 53 -54 -58 59 0
-14 40 48 -54 -58 113 0
-13 41 -48 54 58 -113 0
-13 41 -48 54 -58 113 0
13 14 41 48 -54 -58 -113 0
-13 41 48 54 -58 -113 0
-14 41 -48 54 -58 113 0
13 14 50 51 52 54 -112 0
-13 41 48 54 58 113 0
2 6 -60 0
2 -6 60 0
-13 41 -48 -54 58 113 0
-2 6 60 0
-2 -6 -60 0
-13 41 48 -54 58 -113 0
-10 -14 -34 -41 -60 -61 62 63 0
10 -14 -34 -41 60 -61 62 63 0
-10 -14 -34 -41 -60 61 -62 63 0
10 -14 -34 -41 -60 -61 -62 63 0
10 -14 -34 -41 60 61 -62 63 0
10 -14 34 -60 -61 62 63 0
-10 -14 -34 -41 -60 61 62 -63 0
10 -14 -34 -41 60 61 62 -63 0
10 -14 34 -60 61 -62 63 0
34 -61 62 -95 -131 0
10 -14 34 60 -61 -62 63 0
-25 -26 27 -28 61 0
25 -26 -27 28 -61 0
-25 -26 27 28 -61 0
-25 26 -27 28 -61 0
25 -26 -27 -28 61 0
25 26 -27 28 61 0
25 26 27 28 -61 0
25 26 -27 -28 -61 0
25 -26 27 -28 -61 0
25 26 27 -28 61 0
-25 26 27 -28 -61 0
-25 -26 -27 -28 -61 0
-25 -26 -27 28 61 0
25 -26 27 28 61 0
41 -61 -62 95 -131 0
-25 26 -27 -28 61 0
-29 -30 31 -32 62 0
29 -30 -31 32 -62 0
-29 -30 31 32 -62 0
-29 30 -31 32 -62 0
29 -30 -31 -32 62 0
29 30 -31 32 62 0
29 30 31 32 -62 0
29 30 -31 -32 -62 0
29 -30 31 -32 -62 0
29 30 31 -32 62 0
-29 30 31 -32 -62 0
-29 -30 -31 -32 -62 0
-29 -30 -31 32 62 0
29 -30 31 32 62 0
10 -14 -34 -41 60 -61 -62 -63 0
-29 30 -31 -32 62 0
-10 -14 60 94 -130 0
-34 -41 -61 -62 -95 -131 0
-10 14 60 -94 -130 0
10 -14 41 60 61 -62 -63 0
-10 -14 41 -60 61 62 63 0
10 -14 -60 94 -130 0
34 -61 -62 95 -131 0
-34 -41 61 -62 95 -131 0
-34 -41 61 62 -95 -131 0
10 -14 34 60 61 62 63 0
-34 -41 -61 62 95 -131 0
10 -14 41 -60 61 62 -63 0
-10 -14 -34 -41 60 61 62 63 0
10 -14 41 60 -61 -62 63 0
10 -14 41 -60 -61 -62 -63 0
3 7 -64 0
3 -7 64 0
41 -61 62 -95 -131 0
-3 7 64 0
-3 -7 -64 0
-11 -15 -35 -41 -43 61 -64 65 0
11 -15 -35 -41 -43 61 64 65 0
-11 -15 -35 -41 43 -61 -64 65 0
11 -15 -35 -41 -43 -61 -64 65 0
11 -15 -35 -41 43 -61 64 65 0
11 -15 35 -43 61 -64 65 0
-11 -15 -35 -41 43 61 -64 -65 0
11 -15 -35 -41 43 61 64 -65 0
11 -15 35 43 -61 -64 65 0
35 -43 61 -93 -129 0
11 -15 35 -43 -61 64 65 0
-35 -41 -43 -61 -93 -129 0
-11 15 64 -92 -128 0
11 -15 41 43 -61 64 -65 0
-11 -15 41 43 61 -64 65 0
11 -15 -64 92 -128 0
35 -43 -61 93 -129 0
-35 -41 43 -61 93 -129 0
-35 -41 43 61 -93 -129 0
11 -15 35 43 61 64 65 0
-35 -41 -43 61 93 -129 0
11 -15 41 43 61 -64 -65 0
-11 -15 -35 -41 43 61 64 65 0
11 -15 41 -43 -61 64 65 0
11 -15 41 -43 -61 -64 -65 0
4 8 -66 0
4 -8 66 0
41 -43 61 -93 -129 0
-4 8 66 0
-4 -8 -66 0
-12 -16 -36 -41 -44 62 -66 67 0
12 -16 -36 -41 -44 62 66 67 0
-12 -16 -36 -41 44 -62 -66 67 0
12 -16 36 -44 62 -66 67 0
12 -16 -36 -41 44 62 66 -67 0
-12 16 36 -44 62 66 -67 0
12 -16 36 -44 -62 -66 -67 0
-12 -16 36 44 -62 -66 -67 0
-12 -16 41 44 -62 66 67 0
12 -16 36 44 -62 66 -67 0
12 -16 36 44 62 -66 -67 0
-12 -16 41 -44 62 -66 -67 0
12 -16 41 44 -62 66 -67 0
12 -16 -36 -41 -44 62 -66 -67 0
12 -16 -36 -41 44 -62 -66 -67 0
-12 16 -89 -125 0
12 -16 41 -44 62 66 -67 0
-44 -62 91 -127 0
44 -62 -91 -127 0
44 62 91 -127 0
-44 62 -91 -127 0
12 -16 41 -44 62 -66 67 0
12 -16 -36 -41 -44 -62 -66 67 0
12 -16 41 -44 -62 -66 -67 0
-12 -16 36 44 -62 66 67 0
-12 -16 41 -44 62 66 67 0
-12 -16 36 -44 -62 -66 67 0
12 -16 36 44 62 66 67 0
12 -16 36 -44 62 66 -67 0
36 90 -126 0
-12 -16 36 44 62 66 -67 0
-12 -16 36 44 62 -66 67 0
-45 -63 -68 0
45 -49 55 -57 59 63 65 -67 68 0
45 49 -55 57 -59 63 65 -67 71 0
45 49 -55 -57 59 63 65 -67 70 0
45 63 65 67 -71 0
-45 -65 -68 0
45 -49 55 -57 59 63 -65 67 68 0
45 49 -55 57 -59 63 -65 67 71 0
45 49 -55 -57 59 63 -65 67 70 0
-12 -16 -36 -41 -44 -62 -66 -67 0
-45 -67 -68 0
45 -49 55 -57 59 -63 65 67 68 0
45 49 -55 57 -59 -63 65 67 71 0
45 49 -55 -57 59 -63 65 67 70 0
-63 -67 -71 0
45 63 65 67 -69 0
-45 -49 55 -57 59 63 65 67 68 0
-45 49 -55 57 -59 63 65 67 71 0
-45 49 -55 -57 59 63 65 67 70 0
12 -16 36 44 -62 -66 67 0
-45 -63 -69 0
-12 -16 41 44 62 66 -67 0
-12 -16 41 -44 -62 -66 67 0
-65 -67 -68 0
45 -49 55 57 -59 -63 65 67 69 0
49 -68 0
-55 -68 0
57 -68 0
-59 -68 0
-45 -63 -70 0
45 -49 55 57 -59 63 -65 67 69 0
45 -78 -114 -118 0
-45 -68 114 -118 0
-45 -68 78 -118 0
-45 -67 -69 0
12 16 41 44 62 -66 67 0
-59 -74 82 -118 0
-49 -72 -81 -118 0
-59 -72 -81 -118 0
63 -79 -114 -118 0
-79 -80 -114 0
78 79 80 81 -116 0
-57 -72 80 -118 0
-55 -72 -81 -118 0
65 -80 -114 -118 0
-14 -40 -41 -48 54 58 113 0
-79 -80 -115 0
67 -81 -114 -118 0
-67 -68 114 -118 0
-67 -68 81 -118 0
41 -48 -53 -54 -58 -59 0
13 14 40 -48 -54 58 -113 0
49 -69 0
-55 -69 0
-57 -69 0
59 -69 0
-45 -63 -71 0
-45 -65 -69 0
-45 -69 115 -118 0
-45 -69 78 -118 0
45 -78 -115 -118 0
-14 -50 -51 52 -54 -112 0
-14 50 51 52 54 112 0
-63 -69 115 -118 0
-63 -69 79 -118 0
63 -79 -115 -118 0
-63 -65 -71 0
-63 -67 -69 0
65 -80 -115 -118 0
-65 -69 115 -118 0
-65 -69 80 -118 0
-12 -16 36 -44 62 66 67 0
-65 -67 -69 0
-67 -69 115 -118 0
-67 -69 81 -118 0
67 -81 -115 -118 0
-12 16 36 44 62 66 67 0
-12 16 41 -44 -62 66 67 0
-49 -70 0
55 -70 0
57 -70 0
-59 -70 0
45 -49 55 57 -59 63 65 -67 69 0
-45 -65 -70 0
45 -78 -116 -118 0
-45 -70 116 -118 0
-45 -70 78 -118 0
-12 16 36 44 -62 -66 67 0
-12 16 41 -44 62 -66 67 0
-63 -70 116 -118 0
-63 -70 79 -118 0
63 -79 -116 -118 0
12 16 36 -44 62 -66 -67 0
12 16 36 44 62 -66 67 0
65 -80 -116 -118 0
-65 -70 116 -118 0
-65 -70 80 -118 0
12 16 -36 -41 44 62 66 67 0
12 16 36 -44 -62 66 -67 0
67 -81 -116 -118 0
-67 -70 116 -118 0
-67 -70 81 -118 0
-11 -15 35 -43 61 -64 -65 0
-11 -15 35 43 -61 -64 -65 0
-49 -71 0
55 -71 0
-57 -71 0
59 -71 0
-65 -67 -71 0
-45 -65 -71 0
45 -78 -117 -118 0
-45 -71 78 -118 0
-11 -15 41 -43 -61 -64 65 0
-11 -15 -35 -41 -43 61 64 -65 0
63 -79 -117 -118 0
-63 -71 117 -118 0
-63 -71 79 -118 0
-11 -15 41 -43 -61 64 -65 0
65 -80 -117 -118 0
-65 -71 117 -118 0
-65 -71 80 -118 0
-11 15 35 -43 -61 64 65 0
-11 15 41 43 -61 64 -65 0
67 -81 -117 -118 0
-67 -71 81 -118 0
-11 15 -35 -41 -43 -61 -64 65 0
-11 15 35 43 -61 -64 65 0
-49 -55 -72 0
-45 49 55 57 -59 63 -65 67 72 0
45 49 55 57 -59 -63 65 -67 75 0
45 49 55 57 -59 -63 -65 67 74 0
49 55 57 59 -75 0
-49 -57 -72 0
-45 49 55 -57 59 63 -65 67 72 0
45 49 55 -57 59 -63 65 -67 75 0
45 49 55 -57 59 -63 -65 67 74 0
11 15 35 -43 -61 -64 65 0
-49 -59 -72 0
-45 49 -55 57 59 63 -65 67 72 0
45 49 -55 57 59 -63 65 -67 75 0
45 49 -55 57 59 -63 -65 67 74 0
-55 -59 -75 0
49 55 57 59 -73 0
-45 -49 55 57 59 63 -65 67 72 0
45 -49 55 57 59 -63 65 -67 75 0
45 -49 55 57 59 -63 -65 67 74 0
11 15 35 43 61 -64 65 0
-49 -55 -73 0
11 15 41 43 -61 -64 -65 0
-11 15 41 43 61 -64 -65 0
-57 -59 -72 0
-45 49 -55 57 59 63 65 -67 73 0
45 -72 0
-63 -72 0
65 -72 0
-67 -72 0
-49 -55 -74 0
-45 49 55 -57 59 63 65 -67 73 0
-49 -59 -73 0
-55 -57 -72 0
-49 -59 -74 0
-57 -72 78 -118 0
-59 -72 80 -118 0
-45 -49 55 57 59 63 65 -67 73 0
49 55 57 59 -72 0
-57 -72 -79 -118 0
-55 -72 112 -118 0
-55 -72 78 -118 0
-55 -59 -74 0
-11 15 41 -43 -61 -64 -65 0
11 15 35 43 -61 64 65 0
-49 -72 -79 -118 0
11 15 41 43 -61 64 65 0
11 15 35 -43 61 64 65 0
59 -78 79 -80 81 -82 -113 -118 0
-10 -14 41 60 61 62 -63 0
11 15 35 -43 -61 64 -65 0
10 14 -34 -41 -60 -61 62 63 0
-49 -72 78 -118 0
-55 -72 -79 -118 0
-59 -72 113 -118 0
-10 14 41 60 -61 62 -63 0
-10 14 41 60 61 62 63 0
45 -73 0
-63 -73 0
-65 -73 0
67 -73 0
-49 -55 -75 0
-49 -57 -73 0
-10 14 34 -60 -61 62 63 0
-10 14 41 -60 -61 62 63 0
-10 14 -34 -41 -60 61 62 63 0
-49 73 -77 -118 0
-10 -14 -60 -94 -130 0
-49 -73 77 -118 0
-10 14 34 -60 61 -62 63 0
10 14 34 -60 -61 62 -63 0
55 -77 -112 -118 0
10 14 60 94 -130 0
10 14 -34 -41 60 61 -62 -63 0
73 -76 -118 0
57 -76 -118 0
10 14 34 60 61 62 -63 0
10 14 41 60 -61 -62 -63 0
-14 41 48 54 -58 -113 0
59 -77 -113 -118 0
-40 -41 -48 53 -54 -58 -59 0
-27 31 39 47 -52 56 -57 0
-45 -74 0
63 -74 0
65 -74 0
-67 -74 0
-45 49 55 57 -59 63 65 -67 73 0
-49 -57 -74 0
-27 31 -39 -41 47 -52 -56 -57 0
-55 -74 79 -118 0
-27 31 39 47 -52 -56 57 0
-27 31 -39 -41 -47 52 -56 -57 0
-27 31 41 47 -52 -56 57 0
-27 31 -39 -41 -47 -52 -56 57 0
-27 -31 -39 -41 47 -52 -56 57 0
-57 -74 -78 -118 0
27 31 41 -47 -52 -56 57 0
27 31 -39 -41 -47 -52 56 57 0
27 31 41 47 -52 56 57 0
-49 -74 79 -118 0
-40 -41 48 53 54 58 59 0
27 31 41 -47 52 56 57 0
41 -48 53 54 58 59 0
27 31 41 -47 -52 56 -57 0
50 51 -52 53 54 55 0
-55 -74 -78 -118 0
-9 13 41 -42 -43 44 45 0
-9 -13 85 -121 0
-45 -75 0
63 -75 0
-65 -75 0
67 -75 0
-57 -59 -75 0
-49 -57 -75 0
9 13 41 -42 -43 44 -45 0
9 13 -33 -41 42 43 -44 -45 0
9 13 33 -42 43 44 45 0
-49 -75 -78 -118 0
9 13 33 42 43 -44 45 0
-59 -75 79 -118 0
9 13 41 -42 43 -44 -45 0
9 13 41 42 -43 44 45 0
-55 -75 -78 -118 0
-55 -75 79 -118 0
-59 -75 -78 -118 0
-9 13 41 42 43 44 45 0
-9 13 -33 -41 -42 43 -44 -45 0
-9 13 -33 -41 -42 -43 44 -45 0
-9 13 33 -42 -43 44 45 0
25 29 -37 -41 -46 47 48 -49 0
-25 29 -37 -41 46 47 48 -49 0
-25 29 37 46 -47 -48 49 0
-25 -29 41 46 47 -48 49 0
-25 -29 41 -46 -47 48 -49 0
-25 -29 37 46 47 48 -49 0
-25 -29 41 46 -47 48 49 0
25 -29 -37 -41 -46 47 48 49 0
-1 2 3 4 47 0
-25 -29 37 -46 47 48 49 0
25 -29 37 46 -47 48 -49 0
-25 -29 41 -46 47 -48 -49 0
-25 -29 -37 -41 46 47 -48 -49 0
-25 -29 -37 -41 46 47 48 49 0
-25 -29 -37 -41 46 -47 -48 49 0
25 -29 37 -46 47 -48 49 0
-25 -29 37 46 -47 48 49 0
-5 6 7 8 48 0
-25 -29 41 46 -47 -48 -49 0
-25 -29 41 46 47 48 -49 0
25 29 41 -46 47 48 49 0
25 29 -37 -41 -46 -47 -48 -49 0
-25 29 37 46 -47 48 -49 0
25 -29 -37 -41 46 47 -48 49 0
-25 29 41 46 -47 48 -49 0
-25 29 37 46 47 -48 -49 0
25 -29 37 46 47 48 49 0
-25 29 41 46 47 -48 -49 0
-25 29 41 46 -47 -48 49 0
-25 29 41 46 47 48 49 0
-25 29 -37 -41 -46 -47 -48 49 0
-25 29 -37 -41 -46 47 48 49 0
-25 29 37 -46 -47 48 49 0
-25 29 37 -46 47 48 -49 0
-25 29 37 -46 47 -48 49 0
-18 22 26 30 50 0
-25 29 41 -46 -47 48 49 0
-25 29 41 -46 47 -48 49 0
-25 29 41 -46 -47 -48 -49 0
25 29 37 -46 -47 48 -49 0
25 29 37 -46 47 -48 -49 0
25 29 37 -46 -47 -48 49 0
-38 -41 51 0
25 29 41 -46 47 -48 -49 0
25 29 37 -46 47 48 49 0
-9 10 11 12 52 0
25 29 41 -46 -47 -48 49 0
25 29 -37 -41 46 -47 48 -49 0
25 29 -37 -41 46 47 -48 -49 0
25 29 37 46 -47 48 49 0
25 29 37 46 47 -48 49 0
25 29 37 46 -47 -48 -49 0
25 29 41 46 47 -48 49 0
-13 40 48 54 58 113 0
13 14 40 48 -54 -58 -113 0
-14 40 48 -54 58 -113 0
-9 13 33 -42 43 -44 45 0
-9 13 33 -42 43 44 -45 0
-9 13 33 -42 -43 -44 -45 0
13 14 -40 -41 48 54 -58 -113 0
13 14 40 48 54 58 -113 0
-14 -40 -41 -48 54 -58 -113 0
-13 40 -48 54 -58 113 0
-13 40 48 -54 58 -113 0
-13 -40 -41 48 -54 58 113 0
13 14 40 -48 54 -58 -113 0
13 14 -40 -41 48 54 58 113 0
-13 -40 -41 -48 54 -58 -113 0
13 14 40 48 54 -58 113 0
13 14 50 -51 -52 -54 112 0
-13 50 51 52 54 112 0
-13 -40 -41 48 54 58 -113 0
13 14 50 51 -52 54 112 0
-13 -40 -41 -48 54 58 113 0
13 14 50 51 -52 -54 -112 0
-13 40 48 -54 -58 113 0
13 14 40 -48 -54 -58 113 0
-13 -40 -41 -48 -54 -58 113 0
13 14 -40 -41 48 -54 -58 113 0
-13 -50 51 52 54 -112 0
13 14 -50 51 -52 -54 112 0
-13 -40 -41 48 -54 -58 -113 0
-13 -50 -51 52 54 112 0
-13 50 51 -52 54 -112 0
-13 40 -48 -54 58 113 0
-13 50 -51 52 54 -112 0
13 14 -50 -51 52 54 -112 0
-14 40 -48 54 58 -113 0
-13 -50 51 -52 54 112 0
-13 50 -51 -52 54 112 0
-13 -40 -41 -48 -54 58 -113 0
-13 40 -48 -54 -58 -113 0
13 14 40 -48 54 58 113 0
-13 -50 -51 -52 54 -112 0
-13 50 -51 -52 -54 -112 0
50 -51 -52 -53 54 55 0
50 51 -52 -53 54 -55 0
-50 51 -52 -53 54 55 0
40 -48 53 54 58 59 0
27 31 -39 -41 47 52 -56 -57 0
-27 31 -39 -41 47 52 56 -57 0
-27 31 39 -47 -52 56 57 0
-27 -31 41 47 -52 56 57 0
-27 -31 41 -47 52 -56 -57 0
-27 -31 39 47 52 56 -57 0
-27 -31 41 -47 52 56 57 0
27 -31 -39 -41 47 52 -56 57 0
27 -31 39 47 52 56 57 0
-27 -31 39 47 52 -56 57 0
27 -31 39 -47 52 56 -57 0
-27 -31 41 47 -52 -56 -57 0
-27 -31 -39 -41 47 -52 56 -57 0
-27 -31 -39 -41 47 52 56 57 0
-27 -31 -39 -41 -47 -52 56 57 0
27 -31 39 47 -52 -56 57 0
-27 -31 39 -47 52 56 57 0
-20 24 28 32 58 0
-27 -31 41 -47 -52 56 -57 0
-27 -31 41 47 52 56 -57 0
27 31 41 47 52 -56 57 0
27 31 -39 -41 -47 -52 -56 -57 0
-27 31 39 -47 52 56 -57 0
27 -31 -39 -41 47 -52 56 57 0
13 14 41 -48 -54 58 -113 0
13 14 -50 -51 -52 -54 -112 0
13 14 -40 -41 -48 54 58 -113 0
-14 -40 -41 48 54 58 -113 0
13 14 -40 -41 -48 -54 58 113 0
13 14 -50 51 -52 54 -112 0
-13 40 48 54 -58 -113 0
13 14 -50 51 52 -54 -112 0
13 14 -50 51 52 54 112 0
-13 40 -48 54 58 -113 0
13 14 50 -51 -52 54 -112 0
13 14 -50 -51 52 -54 112 0
-14 40 48 54 58 113 0
13 14 -40 -41 -48 54 -58 113 0
13 14 50 -51 52 54 112 0
-13 50 51 -52 -54 112 0
13 14 -50 -51 -52 54 112 0
13 14 -40 -41 -48 -54 -58 -113 0
-13 -50 51 -52 -54 -112 0
13 14 50 -51 52 -54 -112 0
13 14 50 51 52 -54 112 0
-13 50 -51 52 -54 112 0
-13 -50 -51 52 -54 -112 0
13 14 41 -48 -54 -58 113 0
-13 50 51 52 -54 -112 0
-13 -40 -41 48 54 -58 113 0
-13 -50 -51 -52 -54 112 0
-13 -50 51 52 -54 112 0
-78 -79 -114 0
-49 -57 78 79 80 -81 112 113 114 0
49 57 78 79 80 -81 -112 -113 117 0
49 -57 78 79 80 -81 -112 113 116 0
78 79 80 81 -117 0
-78 -80 -114 0
-49 -57 78 79 -80 81 112 113 114 0
49 57 78 79 -80 81 -112 -113 117 0
49 -57 78 79 -80 81 -112 113 116 0
-14 -50 51 52 54 -112 0
-78 -81 -114 0
-49 -57 78 -79 80 81 112 113 114 0
49 57 78 -79 80 81 -112 -113 117 0
49 -57 78 -79 80 81 -112 113 116 0
-79 -81 -117 0
78 79 80 81 -115 0
-49 -57 -78 79 80 81 112 113 114 0
49 57 -78 79 80 81 -112 -113 117 0
49 -57 -78 79 80 81 -112 113 116 0
-14 -50 -51 52 54 112 0
-78 -79 -115 0
-14 -50 -51 -52 54 -112 0
-14 40 48 54 -58 -113 0
-80 -81 -114 0
-49 57 78 -79 80 81 112 -113 115 0
49 -114 0
-112 -114 0
57 -114 0
-113 -114 0
-78 -79 -116 0
-49 57 78 79 -80 81 112 -113 115 0
-57 -72 -81 -118 0
12 16 -36 -41 -44 62 -66 67 0
-55 -72 82 -118 0
-78 -81 -116 0
-45 -67 -70 0
-45 -67 -71 0
-78 -81 -115 0
68 -78 -114 -118 0
-49 57 -78 79 80 81 112 -113 115 0
68 -79 -114 -118 0
-14 40 -48 -54 58 113 0
-63 -68 79 -118 0
-79 -80 -117 0
-14 50 -51 -52 54 112 0
-14 50 51 52 -54 -112 0
-79 -80 -116 0
-49 -72 82 -118 0
-63 -68 114 -118 0
78 79 80 81 -114 0
68 -80 -114 -118 0
-79 -81 -114 0
-65 -68 80 -118 0
-14 -40 -41 -48 -54 -58 113 0
-80 -81 -116 0
-79 -81 -115 0
-14 41 -48 -54 -58 -113 0
-59 -72 82 -118 0
-65 -68 114 -118 0
-14 -50 51 -52 -54 -112 0
-49 -72 80 -118 0
41 48 -53 -54 -58 59 0
-14 -40 -41 48 54 -58 113 0
-14 50 -51 52 54 -112 0
-80 -81 -115 0
13 14 -40 -41 48 -54 58 -113 0
68 -81 -114 -118 0
13 14 40 48 -54 58 113 0
49 -115 0
-112 -115 0
-57 -115 0
113 -115 0
-78 -79 -117 0
-78 -80 -115 0
69 -78 -115 -118 0
-14 50 -51 -52 -54 -112 0
-63 -65 -68 0
-14 -50 -51 -52 -54 112 0
-14 -50 51 52 -54 112 0
-12 -16 -36 -41 44 62 66 67 0
-57 -72 82 -118 0
-12 -16 -36 -41 -44 62 66 -67 0
45 63 65 67 -68 0
-12 -16 -36 -41 -44 -62 66 67 0
12 16 89 -125 0
45 63 65 67 -70 0
69 -79 -115 -118 0
-63 -67 -68 0
69 -80 -115 -118 0
-12 -16 41 44 -62 -66 -67 0
12 -16 -89 -125 0
-63 -67 -70 0
-63 -65 -69 0
-12 16 -36 -41 -44 -62 66 -67 0
-12 16 -36 -41 44 62 66 -67 0
-12 16 41 44 -62 66 -67 0
-12 16 -36 -41 -44 62 -66 -67 0
-12 16 36 -44 -62 66 67 0
-12 16 36 44 -62 66 -67 0
-12 16 -36 -41 44 -62 -66 -67 0
69 -81 -115 -118 0
-12 16 -36 -41 -44 -62 -66 67 0
-49 -116 0
112 -116 0
57 -116 0
-113 -116 0
-49 57 78 79 80 -81 112 -113 115 0
-78 -80 -116 0
70 -78 -116 -118 0
-12 16 36 44 62 -66 -67 0
-12 16 41 -44 -62 -66 -67 0
-12 16 36 -44 62 -66 67 0
-12 16 -36 -41 44 62 -66 67 0
-12 16 41 44 62 -66 -67 0
-12 -16 89 -125 0
12 16 36 -44 -62 -66 67 0
12 16 41 44 -62 -66 -67 0
12 16 -36 -41 44 62 -66 -67 0
12 16 -36 -41 -44 -62 -66 -67 0
12 16 41 -44 -62 -66 67 0
70 -79 -116 -118 0
12 16 -36 -41 -44 62 66 -67 0
12 16 36 44 -62 66 67 0
12 16 41 -44 62 66 67 0
12 16 -36 -41 -44 -62 66 67 0
12 16 -36 -41 44 -62 66 -67 0
12 16 41 44 -62 66 67 0
70 -80 -116 -118 0
12 16 41 -44 -62 66 -67 0
-55 -74 82 -118 0
-11 -15 35 -43 -61 64 -65 0
41 43 61 93 -129 0
11 -15 -35 -41 43 -61 -64 -65 0
12 16 41 44 62 66 -67 0
11 -15 -35 -41 -43 -61 64 -65 0
70 -81 -116 -118 0
-11 -15 35 43 61 -64 65 0
-49 -117 0
112 -117 0
-57 -117 0
113 -117 0
-80 -81 -117 0
-78 -80 -117 0
-11 -15 -35 -41 -43 -61 64 65 0
-11 -15 41 43 -61 -64 -65 0
-11 -15 41 -43 61 -64 -65 0
-11 -15 -35 -41 -43 -61 -64 -65 0
71 -78 -117 -118 0
-45 -71 117 -118 0
11 -15 -35 -41 43 61 -64 65 0
71 -79 -117 -118 0
11 15 41 43 61 -64 65 0
11 15 -35 -41 -43 61 -64 65 0
-11 -15 41 43 -61 64 65 0
-11 -15 41 -43 61 64 65 0
11 -15 64 -92 -128 0
-11 15 -35 -41 -43 -61 64 -65 0
-11 15 41 -43 61 64 -65 0
-11 15 41 43 61 64 65 0
-11 15 35 43 -61 64 -65 0
-11 15 -35 -41 43 61 64 -65 0
-11 15 -64 92 -128 0
71 -80 -117 -118 0
71 -81 -117 -118 0
-11 15 35 -43 61 -64 65 0
-11 15 35 43 61 -64 -65 0
-11 15 -35 -41 43 -61 -64 -65 0
-11 15 -35 -41 -43 61 -64 -65 0
-11 15 41 -43 61 -64 65 0
-67 -71 117 -118 0
-11 15 41 43 -61 -64 65 0
-59 -72 -79 -118 0
72 -78 79 -80 81 -82 -112 -118 0
-57 72 -78 79 -80 81 -82 -118 0
72 -78 79 -80 81 -82 -113 -118 0
55 -78 79 -80 81 -82 -112 -118 0
-55 -72 80 -118 0
11 15 35 -43 61 -64 -65 0
11 15 -35 -41 -43 61 64 -65 0
-55 -57 -74 0
-57 -59 -74 0
49 55 57 59 -74 0
-11 -15 -64 -92 -128 0
11 15 -35 -41 43 61 -64 -65 0
11 15 41 -43 -61 -64 65 0
11 15 64 92 -128 0
-49 72 -78 79 -80 81 -82 -118 0
11 15 -35 -41 -43 -61 -64 -65 0
11 15 41 -43 61 -64 -65 0
-55 -57 -73 0
-55 -59 -72 0
11 15 -35 -41 43 -61 64 -65 0
11 15 -35 -41 -43 -61 64 65 0
11 15 41 -43 -61 64 -65 0
11 15 35 43 61 64 -65 0
10 14 -60 -94 -130 0
-10 14 -34 -41 60 -61 -62 -63 0
-10 -14 41 60 -61 -62 -63 0
11 15 41 43 61 64 -65 0
-10 14 -34 -41 60 61 62 -63 0
11 15 41 -43 61 64 65 0
-10 14 34 60 61 -62 -63 0
-59 -72 78 -118 0
-10 14 41 60 -61 -62 63 0
-10 14 34 60 61 62 63 0
-10 14 34 60 -61 -62 63 0
-10 14 -34 -41 -60 -61 62 -63 0
-10 14 -34 -41 -60 61 -62 -63 0
-10 14 41 -60 61 -62 63 0
-10 14 34 -60 -61 -62 -63 0
10 14 -34 -41 -60 61 62 -63 0
10 14 34 -60 -61 -62 63 0
-10 14 41 -60 61 62 -63 0
-10 14 41 -60 -61 -62 -63 0
10 14 34 -60 61 62 63 0
-10 14 34 -60 61 62 -63 0
10 14 41 -60 -61 62 -63 0
10 14 -34 -41 60 -61 62 -63 0
-55 -73 77 -118 0
10 14 -34 -41 60 61 62 63 0
10 14 41 -60 -61 -62 63 0
10 14 41 -60 61 -62 -63 0
10 14 34 60 -61 62 63 0
73 -77 -112 -118 0
-55 -73 112 -118 0
10 14 34 60 61 -62 63 0
10 14 41 60 61 -62 63 0
10 14 41 60 -61 62 63 0
-50 -51 -52 -53 -54 55 0
-57 -73 76 -118 0
10 14 34 60 -61 -62 -63 0
-50 -51 52 -53 -54 -55 0
10 14 41 60 61 62 -63 0
-14 41 -48 -54 58 113 0
-50 51 52 53 -54 -55 0
73 -77 -113 -118 0
40 -48 -53 -54 58 59 0
-59 -73 77 -118 0
-27 31 41 -47 52 56 -57 0
-40 -41 48 53 -54 58 -59 0
-50 -51 52 53 -54 55 0
-27 31 41 47 -52 56 -57 0
-59 -73 113 -118 0
-27 31 41 -47 -52 56 57 0
-57 -74 79 -118 0
74 78 -79 -80 81 -82 -113 -118 0
-57 74 78 -79 -80 81 -82 -118 0
55 78 -79 -80 81 -82 -112 -118 0
-49 74 78 -79 -80 81 -82 -118 0
-49 -74 80 -118 0
-27 31 39 -47 -52 -56 -57 0
-27 31 -39 -41 47 52 -56 57 0
-27 31 41 47 52 -56 -57 0
27 31 39 47 -52 -56 -57 0
-27 31 41 -47 52 -56 57 0
-27 31 39 47 52 -56 -57 0
27 31 39 -47 -52 -56 57 0
-27 31 39 -47 52 -56 57 0
27 31 39 47 52 -56 57 0
-59 -74 -78 -118 0
27 31 -39 -41 47 -52 56 -57 0
-55 -74 112 -118 0
27 31 39 -47 52 56 57 0
27 31 41 47 -52 -56 -57 0
27 31 41 -47 52 -56 -57 0
27 31 39 47 -52 56 57 0
-59 -74 79 -118 0
27 31 39 -47 -52 56 -57 0
40 -48 53 54 -58 -59 0
27 31 41 47 52 56 -57 0
41 48 53 54 -58 59 0
-50 -51 -52 53 54 55 0
40 48 53 54 58 -59 0
40 48 53 54 -58 59 0
-50 -51 52 53 54 -55 0
-40 -41 -48 -53 -54 -58 59 0
50 -51 52 53 54 55 0
59 78 -79 -80 81 -82 -113 -118 0
-9 13 41 -42 43 44 -45 0
-59 -74 113 -118 0
9 13 -33 -41 -42 43 44 -45 0
50 51 52 53 54 -55 0
-50 51 52 53 54 55 0
9 13 33 -42 -43 44 -45 0
-57 -74 80 -118 0
9 13 33 -42 43 -44 -45 0
-57 -75 79 -118 0
75 78 -79 80 -81 -82 -112 -118 0
-57 75 78 -79 80 -81 -82 -118 0
75 78 -79 80 -81 -82 -113 -118 0
55 78 -79 80 -81 -82 -112 -118 0
-55 -75 -80 -118 0
9 13 -33 -41 42 -43 -44 45 0
9 13 41 -42 -43 -44 45 0
9 13 33 42 43 44 -45 0
9 13 41 42 -43 -44 -45 0
9 13 33 42 -43 44 45 0
9 13 -33 -41 42 43 44 45 0
9 13 41 42 43 44 -45 0
9 13 -33 -41 42 -43 44 -45 0
-55 -75 112 -118 0
-49 75 78 -79 80 -81 -82 -118 0
-49 -75 79 -118 0
-59 -75 113 -118 0
-57 -75 -80 -118 0
-57 -75 -78 -118 0
9 13 -33 -41 -42 43 -44 45 0
-9 13 -33 -41 42 43 -44 45 0
-9 -13 33 42 -43 -44 -45 0
9 -13 -33 -41 -42 43 44 45 0
9 -13 -33 -41 -42 -43 -44 45 0
-17 18 19 20 43 0
-9 -13 33 -42 -43 -44 45 0
-9 -13 41 42 -43 44 45 0
-9 -13 33 -42 43 44 45 0
-9 -13 41 -42 -43 -44 45 0
-9 -13 -33 -41 42 43 -44 -45 0
-9 -13 -33 -41 42 -43 44 -45 0
-9 -13 33 42 -43 44 45 0
-9 -13 -33 -41 42 -43 -44 45 0
-21 22 23 24 44 0
-9 -13 -33 -41 -42 -43 -44 -45 0
9 -13 33 -42 43 -44 45 0
-9 -13 41 42 -43 -44 -45 0
9 13 -33 -41 -42 -43 44 45 0
9 13 85 -121 0
-9 13 -33 -41 42 43 44 -45 0
41 86 -122 0
9 -13 41 42 43 44 45 0
11 -15 -35 -41 -43 61 -64 -65 0
-11 -15 35 43 -61 64 65 0
12 16 -36 -41 44 -62 -66 67 0
-12 16 -36 -41 44 -62 66 67 0
-12 -16 36 -44 -62 66 -67 0
-10 -14 34 -60 61 62 63 0
41 61 62 95 -131 0
-29 30 31 32 62 0
-10 -14 41 -60 -61 62 -63 0
-10 -14 41 -60 61 -62 -63 0
-10 -14 41 -60 -61 -62 63 0
-10 -14 -34 -41 60 -61 62 -63 0
-10 -14 -34 -41 60 61 -62 -63 0
-10 -14 -34 -41 60 -61 -62 63 0
12 -16 -36 -41 44 62 -66 67 0
41 90 -126 0
12 -16 41 44 62 66 67 0
-10 -14 -34 -41 -60 -61 -62 -63 0
-10 -14 41 60 61 -62 63 0
10 -14 -34 -41 -60 61 62 63 0
10 14 41 -60 61 62 63 0
11 15 -35 -41 43 -61 -64 65 0
-11 15 -35 -41 43 -61 64 65 0
-11 15 35 -43 61 64 -65 0
-11 -15 35 43 61 64 -65 0
-11 -15 35 -43 -61 -64 65 0
-11 -15 35 -43 61 64 65 0
41 61 -62 -95 -131 0
10 -14 -34 -41 -60 -61 62 -63 0
-25 26 27 28 61 0
-10 -14 34 60 61 -62 63 0
10 -14 -34 -41 -60 61 -62 -63 0
-10 -14 34 -60 -61 62 -63 0
-10 -14 34 60 -61 -62 -63 0
-10 -14 34 -60 61 -62 -63 0
41 43 -61 -93 -129 0
35 43 61 93 -129 0
35 43 -61 -93 -129 0
11 -15 41 -43 61 -64 65 0
-11 15 -35 -41 -43 61 64 65 0
-13 41 -48 -54 -58 -113 0
-14 41 -48 54 58 -113 0
-13 41 48 -54 -58 113 0
-14 41 48 -54 58 -113 0
10 14 -34 -41 -60 61 -62 63 0
-10 14 -34 -41 60 61 -62 63 0
-10 14 34 60 -61 62 -63 0
-10 -14 34 60 61 62 -63 0
-10 -14 34 -60 -61 -62 63 0
-10 -14 34 60 -61 62 63 0
-10 -14 41 60 -61 62 63 0
34 61 62 95 -131 0
34 61 -62 -95 -131 0
10 -14 41 -60 -61 62 63 0
-10 14 -34 -41 60 -61 62 63 0
-78 -81 -117 0
-45 -49 55 57 -59 63 65 67 69 0
-14 -40 -41 48 -54 -58 -113 0
-14 -40 -41 -48 -54 58 -113 0
-79 -81 -116 0
-14 -50 51 -52 54 112 0
40 -48 -53 -54 -58 -59 0
-14 40 -48 -54 -58 -113 0
-14 50 51 -52 -54 112 0
-14 50 -51 52 -54 112 0
-65 -67 -70 0
-63 -65 -70 0
-12 -16 41 -44 -62 66 -67 0
-12 -16 -36 -41 44 -62 66 -67 0
-12 16 41 44 62 66 67 0
-12 16 41 -44 62 66 -67 0
-12 16 41 44 -62 -66 67 0
-12 16 36 -44 -62 -66 -67 0
12 16 41 -44 62 -66 -67 0
12 16 36 44 -62 -66 -67 0
12 16 36 44 62 66 -67 0
12 16 36 -44 62 66 67 0
41 -43 -61 93 -129 0
-11 -15 -35 -41 43 -61 64 -65 0
-11 -15 64 92 -128 0
11 15 -64 -92 -128 0
-11 -15 41 43 61 64 -65 0
-11 15 41 -43 -61 64 65 0
-11 15 35 43 61 64 65 0
-11 15 35 -43 -61 -64 -65 0
-11 15 -35 -41 43 61 -64 65 0
-55 -59 -73 0
-49 -59 -75 0
-55 -57 -75 0
-57 -59 -73 0
11 15 35 43 -61 -64 -65 0
10 -14 60 -94 -130 0
11 15 -35 -41 43 61 64 65 0
-10 14 -60 94 -130 0
-10 14 41 60 61 -62 -63 0
10 14 34 -60 61 -62 -63 0
-10 14 -34 -41 -60 -61 -62 63 0
10 14 -34 -41 -60 -61 -62 -63 0
10 14 -34 -41 60 -61 -62 63 0
-13 -14 -53 0
-14 41 48 54 58 113 0
-27 31 39 47 52 56 57 0
50 -51 52 -53 -54 55 0
27 31 39 -47 52 -56 -57 0
-27 31 41 47 52 56 57 0
-27 31 41 -47 -52 -56 -57 0
-49 -74 -78 -118 0
27 31 -39 -41 47 52 56 57 0
27 31 -39 -41 -47 52 56 -57 0
-50 51 -52 53 54 -55 0
27 31 39 47 52 56 -57 0
41 -48 53 54 -58 -59 0
74 78 -79 -80 81 -82 -112 -118 0
9 13 -33 -41 -42 -43 -44 -45 0
-9 13 41 -42 43 -44 45 0
9 13 41 42 43 -44 45 0
9 13 33 -42 -43 -44 45 0
9 13 33 42 -43 -44 -45 0
59 78 -79 80 -81 -82 -113 -118 0
-1 -83 -119 0
1 83 -119 0
-5 -84 -120 0
5 84 -120 0
9 -13 -33 -41 42 -43 -44 -45 0
9 -13 -33 -41 42 43 -44 45 0
-9 -13 -33 -41 -42 43 44 -45 0
-9 -13 33 -42 -43 44 -45 0
9 -13 33 42 -43 -44 45 0
-33 -41 -86 -122 0
9 -13 41 42 -43 -44 45 0
-9 -13 41 -42 43 44 45 0
9 -13 41 -42 43 -44 45 0
-9 13 -33 -41 42 -43 44 45 0
9 -13 41 -42 43 44 -45 0
-66 -88 -124 0
66 88 -124 0
12 -16 -36 -41 -44 -62 66 -67 0
12 -16 -36 -41 44 -62 66 67 0
-12 -16 -36 -41 44 62 -66 -67 0
-12 -16 36 -44 62 -66 -67 0
12 -16 36 -44 -62 66 67 0
-36 -41 -90 -126 0
12 -16 41 -44 -62 66 67 0
-12 -16 41 44 62 -66 67 0
12 -16 41 44 -62 -66 67 0
-12 16 -36 -41 -44 62 66 67 0
12 -16 41 44 62 -66 -67 0
11 -15 35 43 -61 64 -65 0
11 -15 35 -43 61 64 -65 0
11 -15 35 43 61 -64 -65 0
11 -15 35 -43 -61 -64 -65 0
11 -15 41 -43 61 64 -65 0
11 -15 41 43 -61 -64 65 0
11 -15 41 43 61 64 65 0
10 -14 34 60 61 -62 -63 0
10 -14 34 60 -61 62 -63 0
10 -14 34 -60 61 62 -63 0
10 -14 34 -60 -61 -62 -63 0
10 -14 41 60 -61 62 -63 0
10 -14 41 -60 61 -62 63 0
10 -14 41 60 61 62 63 0
49 -96 -132 0
-49 96 -132 0
57 -97 -98 -99 -101 102 103 105 -106 107 -109 -110 111 112 -113 118 119 120 121 122 123 124 125 126 127 128 129 130 131 132 133 134 135 0
-55 -75 81 -118 0
57 -97 -98 99 -101 102 -103 105 -106 -107 -109 -110 -111 112 113 118 119 120 121 122 123 124 125 126 127 128 129 130 131 132 133 134 135 0
-59 -75 -80 -118 0
-57 97 98 -99 101 -102 103 -105 106 107 109 110 111 -112 -113 118 119 120 121 122 123 124 125 126 127 128 129 130 131 132 133 134 135 0
-57 97 98 99 101 -102 -103 -105 106 -107 109 110 -111 -112 113 118 119 120 121 122 123 124 125 126 127 128 129 130 131 132 133 134 135 0
49 -100 -133 0
-49 100 -133 0
-57 -97 98 99 -101 -102 -103 105 106 -107 -109 110 -111 112 113 118 119 120 121 122 123 124 125 126 127 128 129 130 131 132 133 134 135 0
-59 -75 81 -118 0
-57 -75 81 -118 0
-59 -74 -81 -118 0
-49 -75 -80 -118 0
-49 -74 -81 -118 0
49 -104 -134 0
-49 104 -134 0
57 97 -98 -99 101 102 103 -105 -106 107 109 -110 111 -112 -113 118 119 120 121 122 123 124 125 126 127 128 129 130 131 132 133 134 135 0
-59 -74 80 -118 0
57 97 -98 99 101 102 -103 -105 -106 -107 109 -110 -111 -112 113 118 119 120 121 122 123 124 125 126 127 128 129 130 131 132 133 134 135 0
-59 -75 82 -118 0
-57 -97 98 -99 -101 -102 103 105 106 107 -109 110 111 112 -113 118 119 120 121 122 123 124 125 126 127 128 129 130 131 132 133 134 135 0
-55 -75 82 -118 0
-49 -108 -135 0
49 108 -135 0
-49 -75 81 -118 0
-57 -74 82 -118 0
-57 -75 82 -118 0
-49 -74 82 -118 0
-55 -74 -81 -118 0
-49 -75 82 -118 0
-55 -74 80 -118 0
-57 -74 -81 -118 0
